12° run output:
{
    "Function": "euclidB300.tsp",
    "Problem dimension": [
        179,
        236,
        226,
        63,
        104,
        244,
        257,
        3,
        180,
        167,
        45,
        7,
        232,
        38,
        47,
        132,
        37,
        286,
        198,
        181,
        16,
        223,
        209,
        169,
        53,
        64,
        247,
        216,
        139,
        277,
        174,
        127,
        69,
        240,
        233,
        103,
        213,
        159,
        93,
        273,
        238,
        56,
        230,
        50,
        54,
        263,
        161,
        218,
        234,
        119,
        246,
        284,
        271,
        265,
        185,
        231,
        199,
        269,
        280,
        165,
        270,
        48,
        21,
        279,
        183,
        142,
        164,
        107,
        172,
        100,
        208,
        35,
        34,
        143,
        57,
        109,
        214,
        95,
        294,
        114,
        108,
        26,
        225,
        283,
        12,
        58,
        151,
        43,
        249,
        13,
        72,
        192,
        124,
        196,
        219,
        272,
        291,
        203,
        156,
        202,
        220,
        154,
        295,
        187,
        188,
        217,
        82,
        44,
        177,
        92,
        268,
        267,
        193,
        99,
        153,
        6,
        68,
        78,
        62,
        61,
        158,
        149,
        191,
        211,
        195,
        102,
        111,
        60,
        17,
        73,
        106,
        133,
        259,
        189,
        0,
        36,
        86,
        8,
        137,
        250,
        121,
        290,
        227,
        115,
        275,
        136,
        148,
        55,
        266,
        262,
        152,
        281,
        243,
        15,
        261,
        129,
        205,
        128,
        22,
        125,
        76,
        229,
        252,
        141,
        274,
        1,
        285,
        194,
        173,
        110,
        264,
        289,
        33,
        170,
        278,
        186,
        77,
        59,
        140,
        5,
        9,
        144,
        253,
        190,
        83,
        176,
        123,
        79,
        88,
        201,
        200,
        91,
        49,
        166,
        168,
        160,
        52,
        87,
        287,
        134,
        84,
        81,
        157,
        97,
        182,
        210,
        254,
        80,
        298,
        184,
        251,
        117,
        112,
        19,
        30,
        20,
        74,
        89,
        239,
        131,
        29,
        288,
        258,
        118,
        4,
        18,
        10,
        299,
        70,
        255,
        178,
        32,
        175,
        163,
        105,
        41,
        101,
        51,
        96,
        207,
        162,
        39,
        155,
        293,
        282,
        126,
        206,
        23,
        113,
        248,
        146,
        212,
        85,
        138,
        66,
        71,
        297,
        130,
        11,
        46,
        204,
        94,
        65,
        31,
        67,
        42,
        235,
        40,
        197,
        245,
        14,
        145,
        224,
        120,
        296,
        276,
        228,
        256,
        135,
        242,
        147,
        27,
        292,
        24,
        150,
        215,
        222,
        25,
        28,
        90,
        237,
        116,
        98,
        2,
        171,
        221,
        122,
        260,
        75,
        241
    ],
    "Global Optimum": 0,
    "Algorithm": "Genetic algorithm",
    "Parameters": {
        "population": 30,
        "offspring": 30,
        "mutation probability": 0.0033333333333333335,
        "crossover probability": 0.9
    },
    "Fitness": 259461,
    "Solution": [
        179,
        236,
        226,
        63,
        104,
        244,
        257,
        3,
        180,
        167,
        45,
        7,
        232,
        38,
        47,
        132,
        37,
        286,
        198,
        181,
        16,
        223,
        209,
        169,
        53,
        64,
        247,
        216,
        139,
        277,
        174,
        127,
        69,
        240,
        233,
        103,
        213,
        159,
        93,
        273,
        238,
        56,
        230,
        50,
        54,
        263,
        161,
        218,
        234,
        119,
        246,
        284,
        271,
        265,
        185,
        231,
        199,
        269,
        280,
        165,
        270,
        48,
        21,
        279,
        183,
        142,
        164,
        107,
        172,
        100,
        208,
        35,
        34,
        143,
        57,
        109,
        214,
        95,
        294,
        114,
        108,
        26,
        225,
        283,
        12,
        58,
        151,
        43,
        249,
        13,
        72,
        192,
        124,
        196,
        219,
        272,
        291,
        203,
        156,
        202,
        220,
        154,
        295,
        187,
        188,
        217,
        82,
        44,
        177,
        92,
        268,
        267,
        193,
        99,
        153,
        6,
        68,
        78,
        62,
        61,
        158,
        149,
        191,
        211,
        195,
        102,
        111,
        60,
        17,
        73,
        106,
        133,
        259,
        189,
        0,
        36,
        86,
        8,
        137,
        250,
        121,
        290,
        227,
        115,
        275,
        136,
        148,
        55,
        266,
        262,
        152,
        281,
        243,
        15,
        261,
        129,
        205,
        128,
        22,
        125,
        76,
        229,
        252,
        141,
        274,
        1,
        285,
        194,
        173,
        110,
        264,
        289,
        33,
        170,
        278,
        186,
        77,
        59,
        140,
        5,
        9,
        144,
        253,
        190,
        83,
        176,
        123,
        79,
        88,
        201,
        200,
        91,
        49,
        166,
        168,
        160,
        52,
        87,
        287,
        134,
        84,
        81,
        157,
        97,
        182,
        210,
        254,
        80,
        298,
        184,
        251,
        117,
        112,
        19,
        30,
        20,
        74,
        89,
        239,
        131,
        29,
        288,
        258,
        118,
        4,
        18,
        10,
        299,
        70,
        255,
        178,
        32,
        175,
        163,
        105,
        41,
        101,
        51,
        96,
        207,
        162,
        39,
        155,
        293,
        282,
        126,
        206,
        23,
        113,
        248,
        146,
        212,
        85,
        138,
        66,
        71,
        297,
        130,
        11,
        46,
        204,
        94,
        65,
        31,
        67,
        42,
        235,
        40,
        197,
        245,
        14,
        145,
        224,
        120,
        296,
        276,
        228,
        256,
        135,
        242,
        147,
        27,
        292,
        24,
        150,
        215,
        222,
        25,
        28,
        90,
        237,
        116,
        98,
        2,
        171,
        221,
        122,
        260,
        75,
        241
    ],
    "Nb of functions evaluations": 400020,
    "Computational time in seconds": 696.8405015468597,
    "Stopping criterion in evaluations": 400000
}